500
125 125
1 100 322
2 99 834
3 99 686
4 99 154
5 99 60
6 99 618
7 99 93
8 99 407
9 98 381
10 98 673
11 98 588
12 98 680
13 98 334
14 98 177
15 98 682
16 98 723
17 98 211
18 97 702
19 97 823
20 97 814
21 97 7
22 97 287
23 97 742
24 97 847
25 97 464
26 97 620
27 97 363
28 97 445
29 97 68
30 97 433
31 96 822
32 96 353
33 96 504
34 96 960
35 96 921
36 96 358
37 96 999
38 95 886
39 95 900
40 95 686
41 95 330
42 94 573
43 94 250
44 94 199
45 93 247
46 93 481
47 92 404
48 92 679
49 92 524
50 92 202
51 92 42
52 92 522
53 91 31
54 91 645
55 91 681
56 91 59
57 90 272
58 90 415
59 90 922
60 90 247
61 90 662
62 89 246
63 89 439
64 89 541
65 89 925
66 89 461
67 89 928
68 89 610
69 89 622
70 89 383
71 89 413
72 88 803
73 88 558
74 88 990
75 88 593
76 88 519
77 87 299
78 87 448
79 87 926
80 87 56
81 87 133
82 87 402
83 87 981
84 86 98
85 86 456
86 86 523
87 86 959
88 86 973
89 86 254
90 85 72
91 85 312
92 85 24
93 85 942
94 85 132
95 85 427
96 85 501
97 84 644
98 84 687
99 84 620
100 84 704
101 84 230
102 84 898
103 84 496
104 84 752
105 83 779
106 83 851
107 83 277
108 83 242
109 83 724
110 83 748
111 82 470
112 82 355
113 82 223
114 82 520
115 82 436
116 82 771
117 82 998
118 82 815
119 81 333
120 81 107
121 81 509
122 81 48
123 80 889
124 80 898
125 80 338
126 80 77
127 80 111
128 80 309
129 80 462
130 79 492
131 79 928
132 79 955
133 79 118
134 79 803
135 79 301
136 78 638
137 78 617
138 78 507
139 78 41
140 78 911
141 78 702
142 78 639
143 78 632
144 77 217
145 77 981
146 77 486
147 77 519
148 76 20
149 76 153
150 76 464
151 76 57
152 75 444
153 75 975
154 75 835
155 75 680
156 75 601
157 75 228
158 75 467
159 75 434
160 75 907
161 74 784
162 74 961
163 74 679
164 74 79
165 74 59
166 74 464
167 74 438
168 74 957
169 73 823
170 73 709
171 73 913
172 73 379
173 73 104
174 73 195
175 73 927
176 72 503
177 72 840
178 72 483
179 72 237
180 72 53
181 72 188
182 72 550
183 72 573
184 71 154
185 71 122
186 71 697
187 71 406
188 71 819
189 71 940
190 70 871
191 70 818
192 70 372
193 70 93
194 70 402
195 70 534
196 70 269
197 70 459
198 69 54
199 69 675
200 69 168
201 69 665
202 69 247
203 69 958
204 69 320
205 69 664
206 69 579
207 69 143
208 69 484
209 69 762
210 69 913
211 69 890
212 68 742
213 68 870
214 68 330
215 68 419
216 68 148
217 68 614
218 68 51
219 68 705
220 68 44
221 68 575
222 68 945
223 68 923
224 67 553
225 67 139
226 67 509
227 67 920
228 67 79
229 66 956
230 66 618
231 66 173
232 66 28
233 66 686
234 66 476
235 66 820
236 66 639
237 65 862
238 65 30
239 65 75
240 65 707
241 65 679
242 65 622
243 64 535
244 64 715
245 64 739
246 64 51
247 64 73
248 64 922
249 63 533
250 63 935
251 63 565
252 63 558
253 63 718
254 63 393
255 63 646
256 63 954
257 63 332
258 62 108
259 62 984
260 62 79
261 62 118
262 62 151
263 62 799
264 62 35
265 62 838
266 62 200
267 62 325
268 62 688
269 61 163
270 61 996
271 61 877
272 61 22
273 61 426
274 61 254
275 61 5
276 61 905
277 61 300
278 60 95
279 60 764
280 60 752
281 60 342
282 60 311
283 60 887
284 60 81
285 60 126
286 59 99
287 59 831
288 59 349
289 59 619
290 59 397
291 59 64
292 59 213
293 59 901
294 59 685
295 58 553
296 58 15
297 58 28
298 58 231
299 58 922
300 58 65
301 57 203
302 57 459
303 57 174
304 57 851
305 57 872
306 56 23
307 56 834
308 56 722
309 56 396
310 56 236
311 56 559
312 56 44
313 55 888
314 55 970
315 55 137
316 54 669
317 54 908
318 54 644
319 54 873
320 54 602
321 54 901
322 54 597
323 53 14
324 53 944
325 53 162
326 53 511
327 52 312
328 52 440
329 52 243
330 52 838
331 52 795
332 51 209
333 51 446
334 51 583
335 51 75
336 51 622
337 51 611
338 50 227
339 50 807
340 50 915
341 50 799
342 50 404
343 50 805
344 50 356
345 50 975
346 49 458
347 49 904
348 49 155
349 49 882
350 49 97
351 49 72
352 48 562
353 48 301
354 48 569
355 48 1000
356 48 337
357 48 984
358 48 883
359 47 3
360 47 941
361 47 579
362 47 304
363 47 520
364 47 950
365 47 299
366 47 92
367 47 882
368 46 422
369 46 30
370 46 543
371 46 130
372 46 134
373 45 271
374 45 958
375 45 251
376 45 819
377 45 978
378 45 68
379 45 225
380 44 345
381 44 987
382 44 125
383 43 710
384 43 495
385 43 407
386 43 298
387 43 565
388 42 447
389 42 680
390 42 256
391 42 707
392 42 578
393 42 681
394 41 424
395 41 402
396 41 802
397 41 522
398 41 666
399 41 418
400 40 466
401 40 427
402 40 866
403 40 831
404 40 609
405 40 811
406 40 244
407 39 628
408 39 462
409 39 256
410 39 397
411 38 453
412 38 576
413 38 214
414 38 398
415 38 464
416 38 21
417 38 902
418 38 734
419 37 949
420 37 796
421 37 97
422 37 103
423 37 428
424 36 319
425 36 488
426 36 715
427 36 640
428 36 561
429 36 109
430 36 547
431 36 648
432 35 289
433 35 222
434 35 545
435 35 918
436 35 405
437 34 327
438 34 617
439 34 691
440 34 845
441 34 256
442 34 789
443 34 870
444 34 131
445 33 867
446 33 811
447 33 492
448 33 201
449 33 774
450 33 67
451 33 458
452 33 778
453 32 737
454 32 351
455 32 879
456 32 450
457 32 713
458 32 285
459 31 42
460 31 537
461 31 388
462 30 729
463 30 707
464 30 357
465 30 781
466 30 160
467 29 3
468 29 336
469 29 525
470 29 877
471 29 195
472 29 349
473 29 739
474 28 34
475 28 241
476 27 582
477 27 903
478 27 957
479 27 693
480 27 104
481 27 125
482 27 600
483 27 322
484 27 781
485 27 669
486 27 265
487 26 312
488 26 161
489 26 792
490 26 712
491 25 249
492 25 354
493 25 626
494 25 473
495 25 806
496 25 400
497 25 843
498 25 893
499 25 938
500 25 40
